\ENCODING=ISO-8859-1
\Problem name: instances

Maximize
 obj:
Subject To
 c1: 69 x1 + 97 x2 + 87 x3 + 56 x4 - 38 x5 - 46 x6 + 14 x7 - 77 x9 + 17 x10
     <= 161
 c2: 94 x1 + 14 x2 + 70 x3 + 86 x4 + 8 x5 + 19 x6 + 32 x7 <= 207
 c3: 21 x1 + 75 x3 - 21 x4 + 12 x5 - 28 x6 + 81 x7 + 22 x8 + 99 x10 <= 232
 c4: 84 x1 + 84 x2 + 70 x3 + 56 x4 + 70 x5 + 32 x6 + 93 x7 + x8 + 53 x9
     + 62 x10 <= 422
 c5: 34 x1 + 64 x2 + 14 x3 + 78 x4 + 53 x6 + 10 x7 + 20 x8 + 96 x9 + 63 x10
     <= 315
Bounds
      x1 >= 0
      x2 >= 0
      x3 >= 0
      x4 >= 0
      x5 >= 0
      x6 >= 0
      x7 >= 0
      x8 >= 0
      x9 >= 0
      x10 >= 0
Generals
 x1  x2  x3  x4  x5  x6  x7  x8  x9  x10 
End
